DATASET = "thpack4";
INSTANCE = "065";

WIDTH = 233;
HEIGHT = 220;
LENGTH = 587;

NO_OF_SHAPES = 10;
size = [|
  55,50,26 |
  48,42,37 |
  47,34,26 |
  104,74,50 |
  83,70,40 |
  53,52,38 |
  108,69,49 |
  78,73,72 |
  77,62,24 |
  74,34,21 |
|];

verticality = [|
  0,1,1 |
  1,1,1 |
  1,1,1 |
  0,1,1 |
  0,1,1 |
  1,1,1 |
  0,1,1 |
  1,1,1 |
  0,0,1 |
  0,1,1 |
|];

box_count = [
  8,
  16,
  17,
  18,
  17,
  19,
  11,
  20,
  15,
  15,
];
